100
750 757
704 831
684 863
700 902
748 922
625 879
567 810
549 940
511 933
408 987
333 971
284 934
290 872
239 859
263 796
376 779
407 780
468 691
596 595
654 579
653 619
674 543
719 495
749 502
745 444
803 459
830 439
827 423
862 323
900 288
998 294
951 135
895 111
978 76
726 129
700 170
721 243
708 304
616 287
524 311
520 374
490 478
470 495
437 533
317 631
303 632
199 667
175 702
122 747
104 763
146 797
71 817
42 754
13 764
54 712
67 643
121 604
57 562
99 481
10 466
143 370
182 301
216 317
220 274
264 293
352 350
335 414
306 439
245 523
208 546
46 291
78 269
67 128
197 187
279 152
269 122
225 101
338 77
367 76
346 132
347 195
369 255
407 251
419 311
485 222
523 166
558 163
647 112
641 86
691 56
683 2
926 495
997 504
917 603
832 673
799 588
896 934
984 920
190 957
163 998

